python/teste/teste46
4 3
1 3 0 10 2 6
2 1 1 3 0 3
1 5 2 6 0 4
2 1 1 8 0 4
